32	0

0	2	2	5
1	1	3
1	2	4	6
7	1	7
3	1	6
4	1	7
7	1	8
9	2	9	10
7	2	11	12
8	1	11
1	1	13
6	1	15
1	1	14
2	1	15
4	1	16
3	1	17
7	1	18
9	2	19	20
10	2	21	23
6	2	21	23
4	1	22
4	1	24
10	1	24
7	1	25
1	3	26	27	28
5	1	29
9	1	29
6	1	29
8	2	30	31
10	1	32
2	1	32
0	0
